
  32    4
  10   10   10   10

   0   0   0   0   0   2 2 31 
   6   1   1   1   0   1 3 
   4   8   0   3   1   3 30 20 4 
  10   0   5   4   4   1 5 
   2   4   3   4   0   1 6 
   4   0   3   4   3   2 28 7 
   2   2   0   4   5   2 29 8 
  10   4   0   5   1   1 9 
   5   5   0   8   2   1 10 
   2   0   6   3   4   3 27 26 11 
   9   4   3   0   6   1 12 
   4   4   0   7   9   1 13 
  10   4   2   5   0   3 25 24 14 
   1   2   3   0   3   1 15 
   8   2   0   3   4   1 16 
   9   0   6   2   5   1 17 
   8   0   5   6   7   1 18 
   2   6   0   5   1   1 19 
   8   6   2   0   6   1 21 
   4   0   6   1   2   2 28 24 
   5   3   3   4   0   1 22 
   3   0   4   2   4   1 23 
   2   0   5   4   4   1 32
   2   0   3   4   2   1 32
   8   1   4   4   0   1 32
   7   4   3   0   4   1 32
   5   7   8   5   0   1 32
  10   4   6   0   9   1 32
   1   5   2   0   5   1 32
   2   3   6   0   3   1 32
  10   5   3   0   2   1 32
   0   0   0   0   0   0 
